RT is False
Default write of storage_offers_DA.csv just to have a file (but constraint should be inactive)
Reading model...
...model read.
creating competitive generators file...
...competitive generators recorded.
Loading data...
.. day-ahead data with real-time VRE data read.
Compiling instance...
...instance created.
Creating Offer Mitigation (model will solve as dispatch if TRUE)...
Solving...

Welcome to IBM(R) ILOG(R) CPLEX(R) Interactive Optimizer 12.8.0.0
  with Simplex, Mixed Integer & Barrier Optimizers
5725-A06 5725-A29 5724-Y48 5724-Y49 5724-Y54 5724-Y55 5655-Y21
Copyright IBM Corp. 1988, 2017.  All Rights Reserved.

Type 'help' for a list of available commands.
Type 'help' followed by a command name for more
information on commands.

CPLEX> Logfile 'cplex.log' closed.
Logfile 'C:\Users\llavi\Desktop\test919\logs\tmp9bfgvgmx.cplex.log' open.
CPLEX> New value for parallel optimization mode: -1
CPLEX> New value for mixed integer optimality gap tolerance: 0.01
CPLEX> New value for integrality tolerance: 1e-09
CPLEX> New value for feasibility tolerance: 0.01
CPLEX> New value for deterministic time limit in ticks: 75000
CPLEX> Problem 'C:\Users\llavi\Desktop\test919\logs\tmp_wdlymm0.pyomo.lp' read.
Read time = 0.06 sec. (3.03 ticks)
CPLEX> Problem name         : C:\Users\llavi\Desktop\test919\logs\tmp_wdlymm0.pyomo.lp
Objective sense      : Minimize
Variables            :   26465  [Nneg: 1,  Box: 22000,  Free: 4464]
Objective nonzeros   :    2496
Linear constraints   :   27515  [Less: 14006,  Greater: 4416,  Equal: 9093]
  Nonzeros           :   89171
  RHS nonzeros       :   12267

Variables            : Min LB: -5000.000        Max UB: 1000000.       
Objective nonzeros   : Min   : 15.73158         Max   : 124.0997       
Linear constraints   :
  Nonzeros           : Min   : 0.8500000        Max   : 3000.000       
  RHS nonzeros       : Min   : 0.1750000        Max   : 5000.000       
CPLEX> CPXPARAM_Simplex_Tolerances_Feasibility          0.01
CPXPARAM_Parallel                                -1
CPXPARAM_DetTimeLimit                            75000
CPXPARAM_MIP_Tolerances_MIPGap                   0.01
CPXPARAM_MIP_Tolerances_Integrality              1.0000000000000001e-09
Parallel mode: opportunistic, using up to 4 threads for concurrent optimization.
Tried aggregator 1 time.
LP Presolve eliminated 21401 rows and 15893 columns.
Aggregator did 724 substitutions.
Reduced LP has 5390 rows, 9848 columns, and 31764 nonzeros.
Presolve time = 0.03 sec. (22.47 ticks)

Iteration log . . .
Iteration:     1   Dual objective     =             0.000000
Perturbation started.
Iteration:   101   Dual objective     =             0.000000
Iteration:   359   Dual objective     =             1.352576
Iteration:   630   Dual objective     =             1.974799
Iteration:   961   Dual objective     =             2.155357
Iteration:  1159   Dual objective     =             2.277314
Iteration:  1512   Dual objective     =             2.334193
Iteration:  1818   Dual objective     =             2.363633
Iteration:  2121   Dual objective     =             2.384687
Iteration:  2423   Dual objective     =             2.394568
Iteration:  2729   Dual objective     =             2.404015
Iteration:  3137   Dual objective     =             2.411884
Iteration:  3523   Dual objective     =             2.424382
Iteration:  3943   Dual objective     =             2.437936
Iteration:  4373   Dual objective     =          2175.243715
Removing perturbation.

Dual simplex solved model.


Dual simplex - Optimal:  Objective =  2.1870480535e+03
Solution time =    0.14 sec.  Iterations = 4430 (0)
Deterministic time = 96.07 ticks  (681.38 ticks/sec)

CPLEX> Solution written to file 'C:\Users\llavi\Desktop\test919\logs\tmp34r87v9x.cplex.sol'.
CPLEX> Exporting results... 
...storage offer mitigation file created
Converting model to MPEC...
...converted
NOTE: initial MIP solve with only storage competitive to get feasible solution
Solving...

Welcome to IBM(R) ILOG(R) CPLEX(R) Interactive Optimizer 12.8.0.0
  with Simplex, Mixed Integer & Barrier Optimizers
5725-A06 5725-A29 5724-Y48 5724-Y49 5724-Y54 5724-Y55 5655-Y21
Copyright IBM Corp. 1988, 2017.  All Rights Reserved.

Type 'help' for a list of available commands.
Type 'help' followed by a command name for more
information on commands.

CPLEX> Logfile 'cplex.log' closed.
Logfile 'C:\Users\llavi\Desktop\test919\logs\tmprfgemoyw.cplex.log' open.
CPLEX> New value for parallel optimization mode: -1
CPLEX> New value for mixed integer optimality gap tolerance: 0.01
CPLEX> New value for integrality tolerance: 1e-09
CPLEX> New value for feasibility tolerance: 0.01
CPLEX> New value for deterministic time limit in ticks: 75000
CPLEX> Problem 'C:\Users\llavi\Desktop\test919\logs\tmpa0wokgmc.pyomo.lp' read.
Read time = 0.28 sec. (13.96 ticks)
CPLEX> Problem name         : C:\Users\llavi\Desktop\test919\logs\tmpa0wokgmc.pyomo.lp
Objective sense      : Maximize
Variables            :   53805  [Nneg: 1,  Box: 22000,  Free: 4464,
                                 Binary: 27340]
Objective nonzeros   :    9074
Linear constraints   :  123205  [Less: 41346,  Greater: 59096,  Equal: 22763]
  Nonzeros           :  291701
  RHS nonzeros       :   67407

Variables            : Min LB: -5000.000        Max UB: 1000000.       
Objective nonzeros   : Min   : 0.1750000        Max   : 2500.000       
Linear constraints   :
  Nonzeros           : Min   : 0.1750000        Max   : 1000000.       
  RHS nonzeros       : Min   : 0.1750000        Max   : 1000000.       
CPLEX> CPXPARAM_Simplex_Tolerances_Feasibility          0.01
CPXPARAM_Parallel                                -1
CPXPARAM_DetTimeLimit                            75000
CPXPARAM_MIP_Tolerances_MIPGap                   0.01
CPXPARAM_MIP_Tolerances_Integrality              1.0000000000000001e-09
Tried aggregator 3 times.
MIP Presolve eliminated 88659 rows and 19004 columns.
MIP Presolve added 3355 rows and 0 columns.
MIP Presolve modified 23868 coefficients.
Aggregator did 12996 substitutions.
Reduced MIP has 24905 rows, 21246 columns, and 71014 nonzeros.
Reduced MIP has 8419 binaries, 0 generals, 0 SOSs, and 0 indicators.
Presolve time = 0.28 sec. (165.58 ticks)
Probing fixed 415 vars, tightened 2921 bounds.
Probing time = 3.33 sec. (919.06 ticks)
Tried aggregator 2 times.
MIP Presolve eliminated 937 rows and 832 columns.
MIP Presolve modified 2231 coefficients.
Aggregator did 34 substitutions.
Reduced MIP has 23934 rows, 20380 columns, and 68206 nonzeros.
Reduced MIP has 8003 binaries, 0 generals, 0 SOSs, and 0 indicators.
Presolve time = 0.11 sec. (54.49 ticks)
Probing time = 0.06 sec. (14.82 ticks)
Clique table members: 6664.
MIP emphasis: balance optimality and feasibility.
MIP search method: dynamic search.
Parallel mode: opportunistic, using up to 4 threads.
Root relaxation solution time = 0.51 sec. (426.04 ticks)

        Nodes                                         Cuts/
   Node  Left     Objective  IInf  Best Integer    Best Bound    ItCnt     Gap

      0     0        0.0000   629                      0.0000     2968         
*     0+    0                            0.0000        0.0000             0.00%
      0     0        cutoff              0.0000        0.0000     2968    0.00%
Elapsed time = 5.42 sec. (1960.62 ticks, tree = 0.01 MB, solutions = 1)

Root node processing (before b&c):
  Real time             =    5.44 sec. (1962.89 ticks)
Parallel b&c, 4 threads:
  Real time             =    0.00 sec. (0.00 ticks)
  Sync time (average)   =    0.00 sec.
  Wait time (average)   =    0.00 sec.
                          ------------
Total (root+branch&cut) =    5.44 sec. (1962.89 ticks)

Solution pool: 1 solution saved.

MIP - Integer optimal solution:  Objective =  7.5124262366e-10
Solution time =    5.44 sec.  Iterations = 2968  Nodes = 0
Deterministic time = 1963.04 ticks  (361.05 ticks/sec)

CPLEX> Incumbent solution written to file 'C:\Users\llavi\Desktop\test919\logs\tmphh0t0m1q.cplex.sol'.
CPLEX> NOTE: no warmstart specified for MIP iteration, default behavior is true
NOTE: resolving with all competitive generators using storage-only solution to warmstart
Solving...

Welcome to IBM(R) ILOG(R) CPLEX(R) Interactive Optimizer 12.8.0.0
  with Simplex, Mixed Integer & Barrier Optimizers
5725-A06 5725-A29 5724-Y48 5724-Y49 5724-Y54 5724-Y55 5655-Y21
Copyright IBM Corp. 1988, 2017.  All Rights Reserved.

Type 'help' for a list of available commands.
Type 'help' followed by a command name for more
information on commands.

CPLEX> Logfile 'cplex.log' closed.
Logfile 'C:\Users\llavi\Desktop\test919\logs\tmpikalifzk.cplex.log' open.
CPLEX> New value for parallel optimization mode: -1
CPLEX> New value for mixed integer optimality gap tolerance: 0.01
CPLEX> New value for integrality tolerance: 1e-09
CPLEX> New value for feasibility tolerance: 0.01
CPLEX> New value for deterministic time limit in ticks: 75000
CPLEX> Problem 'C:\Users\llavi\Desktop\test919\logs\tmpyne9ye4k.pyomo.lp' read.
Read time = 0.22 sec. (13.98 ticks)
CPLEX> MIP start file 'C:\Users\llavi\Desktop\test919\logs\tmpwl4zvub5.cplex.mst' read.
CPLEX> Problem name         : C:\Users\llavi\Desktop\test919\logs\tmpyne9ye4k.pyomo.lp
Objective sense      : Maximize
Variables            :   54525  [Nneg: 1,  Box: 22720,  Free: 4464,
                                 Binary: 27340]
Objective nonzeros   :    9770
Linear constraints   :  123205  [Less: 41346,  Greater: 59096,  Equal: 22763]
  Nonzeros           :  291701
  RHS nonzeros       :   67407

Variables            : Min LB: -5000.000        Max UB: 1000000.       
Objective nonzeros   : Min   : 0.1750000        Max   : 2500.000       
Linear constraints   :
  Nonzeros           : Min   : 0.1750000        Max   : 1000000.       
  RHS nonzeros       : Min   : 0.1750000        Max   : 1000000.       
CPLEX> CPXPARAM_Simplex_Tolerances_Feasibility          0.01
CPXPARAM_Parallel                                -1
CPXPARAM_DetTimeLimit                            75000
CPXPARAM_MIP_Tolerances_MIPGap                   0.01
CPXPARAM_MIP_Tolerances_Integrality              1.0000000000000001e-09
Warning:  No solution found from 1 MIP starts.
Retaining values of one MIP start for possible repair.
Tried aggregator 3 times.
MIP Presolve eliminated 88659 rows and 19724 columns.
MIP Presolve added 3355 rows and 0 columns.
MIP Presolve modified 23868 coefficients.
Aggregator did 12996 substitutions.
Reduced MIP has 24905 rows, 21246 columns, and 71014 nonzeros.
Reduced MIP has 8419 binaries, 0 generals, 0 SOSs, and 0 indicators.
Presolve time = 0.31 sec. (165.94 ticks)
Probing fixed 415 vars, tightened 2921 bounds.
Probing time = 3.16 sec. (919.06 ticks)
Tried aggregator 2 times.
MIP Presolve eliminated 937 rows and 832 columns.
MIP Presolve modified 2231 coefficients.
Aggregator did 34 substitutions.
Reduced MIP has 23934 rows, 20380 columns, and 68206 nonzeros.
Reduced MIP has 8003 binaries, 0 generals, 0 SOSs, and 0 indicators.
Presolve time = 0.11 sec. (54.49 ticks)
Probing time = 0.06 sec. (14.82 ticks)
Clique table members: 6664.
MIP emphasis: balance optimality and feasibility.
MIP search method: dynamic search.
Parallel mode: opportunistic, using up to 4 threads.
Root relaxation solution time = 0.42 sec. (213.19 ticks)

        Nodes                                         Cuts/
   Node  Left     Objective  IInf  Best Integer    Best Bound    ItCnt     Gap

      0     0   113491.8475  1682                 113491.8475     3122         
      0     0   104840.9080   680                   Cuts: 653     3458         
      0     0   103227.7543   565                   Cuts: 336     3631         
      0     0   103227.7543   528                   Cuts: 107     3691         
      0     0   103227.7543   517                    Cuts: 74     3713         
      0     0   103227.7543   499                    Cuts: 54     3731         
      0     0   103227.7543   490                    Cuts: 44     3747         
      0     0    94466.2453   419                    Cuts: 72     3958         
      0     0    94466.2453   400                    Cuts: 63     3991         
      0     0    94466.2453   396                    Cuts: 38     4011         
      0     0    94466.2453   392                    Cuts: 39     4033         
Repair heuristic found nothing.
      0     3    78086.5052   376                  84478.3432     4074         
Elapsed time = 27.36 sec. (10102.67 ticks, tree = 0.02 MB, solutions = 0)
     70    12    infeasible                        34428.9239     4562         
    181    57    12945.2657   284                  34428.9239     6189         
    301    55    11975.1516   284                  34428.9239     7137         
    399    65     7325.8084   295                  34428.9239     8498         
    468    78        0.0000   266                  34428.9239     9488         
    568    83    infeasible                        34428.9239    10234         
    679   121     7200.5361   311                  34428.9239    10816         
    770   280    -2674.3685   244                  34428.9239    11276         
    895   324    -3644.4825   232                  34428.9239    12225         
*  1411   810      integral     0        0.0000    34428.9239    12561     --- 
Elapsed time = 32.97 sec. (13126.10 ticks, tree = 0.26 MB, solutions = 1)
   1826   274    14681.0998   263        0.0000    33930.9468    13985     --- 
   2362   769      552.2381   219        0.0000    33930.9468    14337     --- 
*  2520+  709                            0.0000     5352.5084              --- 
   2520   710        cutoff              0.0000     5319.5855    21025     --- 

Implied bound cuts applied:  2
Flow cuts applied:  10
Mixed integer rounding cuts applied:  8
Gomory fractional cuts applied:  7

Root node processing (before b&c):
  Real time             =   26.97 sec. (10077.91 ticks)
Parallel b&c, 4 threads:
  Real time             =   20.73 sec. (9593.49 ticks)
  Sync time (average)   =    0.41 sec.
  Wait time (average)   =    0.03 sec.
                          ------------
Total (root+branch&cut) =   47.70 sec. (19671.40 ticks)

Solution pool: 2 solutions saved.

MIP - Integer optimal solution:  Objective =  5.7055149227e-07
Solution time =   47.70 sec.  Iterations = 21048  Nodes = 2525
Deterministic time = 19671.55 ticks  (412.38 ticks/sec)

CPLEX> Incumbent solution written to file 'C:\Users\llavi\Desktop\test919\logs\tmp65d_y7g4.cplex.sol'.
CPLEX> Exporting results... 
